<number of tasks>
9

<cycle time>
10

<task times>
1 5
2 3
3 4
4 5
5 4
6 5
7 1
8 4
9 6

<precedence relations>
1,2
1,3
2,4
3,4
4,5
4,6
4,7
5,8
6,9
7,9
8,9

<setup times forward>
4,5:1
4,6:1
5,7:1
5,8:1
6,7:1
6,8:1
6,9:1
7,5:1
7,6:1
8,6:1

<setup times backward>
7,5:1
7,6:1
8,5:1
8,6:1
9,5:1
9,6:1

<end>

<optimal SALBP-1 value>
4


<rand seed>
467321153

<Lower Bounds>
Lm1=4
Lms1=4
Lm2=3
Lm3=4
Lm4=4
Best=4

<Optimal Stations (Iterations: 10)>
4
